************************************************************************
file with basedata            : mb14_.bas
initial value random generator: 333429623
************************************************************************
projects                      :  1
jobs (incl. supersource/sink ):  12
horizon                       :  74
RESOURCES
  - renewable                 :  2   R
  - nonrenewable              :  2   N
  - doubly constrained        :  0   D
************************************************************************
PROJECT INFORMATION:
pronr.  #jobs rel.date duedate tardcost  MPM-Time
    1     10      0        9        7        9
************************************************************************
PRECEDENCE RELATIONS:
jobnr.    #modes  #successors   successors
   1        1          3           2   3   4
   2        3          1          10
   3        3          3           5   6   8
   4        3          1           5
   5        3          3           9  10  11
   6        3          2           7  11
   7        3          1           9
   8        3          1           9
   9        3          1          12
  10        3          1          12
  11        3          1          12
  12        1          0        
************************************************************************
REQUESTS/DURATIONS:
jobnr. mode duration  R 1  R 2  N 1  N 2
------------------------------------------------------------------------
  1      1     0       0    0    0    0
  2      1     6       6   10    7    8
         2     7       4    4    6    6
         3    10       4    1    3    4
  3      1     1       8    4    8    2
         2     2       7    4    8    2
         3     8       4    4    7    2
  4      1     2       9   10    6    9
         2     4       5    7    3    8
         3     8       4    5    3    8
  5      1     1       6    6    8    8
         2     1       7    5    9    9
         3     6       5    1    8    6
  6      1     3       8    7    2   10
         2     7       1    7    2    5
         3     7       5    6    2    6
  7      1     1       8    9    9    5
         2     6       8    6    8    3
         3     8       7    1    6    2
  8      1     1       6    6    9    7
         2     8       6    6    5    6
         3    10       5    6    3    5
  9      1     2       7    5    4    9
         2     2       6    8    3    9
         3     3       2    2    2    9
 10      1     3       6    6    8   10
         2     5       6    4    5    8
         3     6       6    3    4    6
 11      1     1       9    4    5    5
         2     6       8    3    4    5
         3     8       5    1    1    3
 12      1     0       0    0    0    0
************************************************************************
RESOURCEAVAILABILITIES:
  R 1  R 2  N 1  N 2
   11   11   67   74
************************************************************************
MAXIMAL LAGS:
from  to  type  delay
    1   12   ES      0
    1    2   ES      0
    2   12   ES      0
    1    3   ES      0
    3   12   ES      0
    1    4   ES      0
    4   12   ES      0
    1    5   ES      0
    5   12   ES      0
    1    6   ES      0
    6   12   ES      0
    1    7   ES      0
    7   12   ES      0
    1    8   ES      0
    8   12   ES      0
    1    9   ES      0
    9   12   ES      0
    1   10   ES      0
   10   12   ES      0
    1   11   ES      0
   11   12   ES      0
    1   12   ES      0
    2   10   SS      4
    2   10   SE    -12
    2   10   ES     -7
    2   10   EE      7
    3    5   SS     -4
    3    5   SE     10
    3    5   ES     -8
    3    5   EE     -3
    3    6   SS    -11
    3    6   SE      6
    3    6   ES    -11
    3    6   EE     10
    3    8   SS     -6
    3    8   SE     11
    8    3   SE      0
    3    8   ES      0
    3    8   EE      3
    4    5   SS      9
    4    5   SE      5
    4    5   ES      4
    4    5   EE    -10
    5    9   SS     -7
    5    9   SE      2
    5    9   ES     12
    5    9   EE      4
    5   10   SS      0
    5   10   SE      5
    5   10   ES     12
    5   10   EE      0
    5   11   SS      0
    5   11   SE      7
    5   11   ES     -4
    5   11   EE     -6
    6    7   SS     -7
    6    7   SE    -12
    6    7   ES     -7
    6    7   EE      6
    6   11   SS     -6
    6   11   SE      6
    6   11   ES     10
    6   11   EE    -12
    7    9   SS      4
    7    9   SE      2
    7    9   ES      4
    7    9   EE     10
    8    9   SS     11
    8    9   SE      4
    8    9   ES     -4
    8    9   EE     -3
************************************************************************
